StudentsNr = 10;
InstructorsNr = 94;
DaysNr = 2;
SlotsPerDay = 15;
AvailabilitySlotsLenght = 3;
RoomNr = 2;
ProgrammNr = 1;
DegreeNr = 3;
RolesNr = 1;
CoursesNr = 2;
InstructorsProgramm = [{1}, {1}, {1}, {1}, {1}, {1}, {1}, {1}, {1}, {1}, {1}, {1}, {1}, {1}, {1}, {1}, {1}, {1}, {1}, {1}, {1}, {1}, {1}, {1}, {1}, {1}, {1}, {1}, {1}, {1}, {1}, {1}, {1}, {1}, {1}, {1}, {1}, {1}, {1}, {1}, {1}, {1}, {1}, {1}, {1}, {1}, {1}, {1}, {1}, {1}, {1}, {1}, {1}, {1}, {1}, {1}, {1}, {1}, {1}, {1}, {1}, {1}, {1}, {1}, {1}, {1}, {1}, {1}, {1}, {1}, {1}, {1}, {1}, {1}, {1}, {1}, {1}, {1}, {1}, {1}, {1}, {1}, {1}, {1}, {1}, {1}, {1}, {1}, {1}, {1}, {1}, {1}, {1}, {1}];
InstructorRolesPerProgramm = [|{6, 7, 15, 21, 22, 25, 26, 27, 29, 31, 32, 33, 34, 36, 37, 38, 39, 40, 41, 42, 44, 46, 47, 48, 50, 51, 52, 54, 56, 61, 64, 66, 68, 71, 79, 84, 85, 88, 90, 91, 94}|];
InstructorsAvailability = [|0, 0, 0, 0, 0, 0, 1, 1, 0, 0, |1, 1, 1, 1, 0, 1, 0, 1, 1, 1, |0, 0, 1, 1, 1, 1, 1, 1, 1, 1, |0, 0, 1, 1, 1, 1, 1, 1, 1, 1, |0, 1, 0, 0, 0, 0, 1, 1, 1, 1, |1, 1, 0, 1, 1, 1, 1, 1, 1, 0, |0, 1, 1, 0, 0, 0, 0, 0, 1, 0, |0, 0, 0, 0, 1, 1, 0, 1, 0, 1, |1, 1, 1, 0, 0, 0, 1, 0, 0, 1, |0, 1, 0, 1, 1, 1, 0, 1, 1, 0, |1, 1, 1, 0, 0, 0, 0, 1, 1, 0, |1, 1, 1, 1, 1, 1, 0, 1, 1, 1, |0, 0, 1, 0, 1, 1, 1, 1, 1, 0, |1, 1, 1, 1, 1, 1, 1, 0, 1, 1, |0, 1, 1, 1, 1, 1, 1, 1, 1, 1, |1, 1, 1, 0, 0, 1, 1, 0, 1, 0, |0, 0, 1, 1, 1, 1, 1, 1, 1, 0, |0, 0, 1, 1, 1, 1, 1, 1, 1, 1, |0, 1, 0, 1, 1, 1, 1, 1, 1, 1, |0, 1, 1, 1, 1, 1, 1, 1, 0, 0, |1, 1, 1, 1, 1, 1, 1, 1, 0, 0, |0, 1, 1, 1, 1, 0, 1, 1, 1, 1, |1, 1, 0, 1, 1, 1, 1, 1, 1, 1, |1, 1, 1, 0, 0, 0, 0, 0, 1, 1, |1, 1, 1, 1, 1, 0, 1, 1, 1, 1, |0, 1, 1, 1, 1, 1, 1, 1, 1, 1, |1, 1, 0, 1, 1, 1, 1, 1, 0, 1, |1, 1, 1, 1, 1, 1, 1, 0, 0, 0, |0, 1, 0, 1, 1, 1, 1, 1, 0, 0, |1, 1, 1, 1, 1, 1, 1, 1, 1, 1, |1, 1, 1, 1, 1, 1, 0, 1, 1, 1, |0, 0, 1, 0, 1, 1, 1, 1, 1, 1, |0, 1, 1, 1, 1, 1, 1, 1, 1, 1, |1, 1, 1, 1, 0, 0, 1, 1, 1, 1, |0, 1, 1, 1, 1, 0, 1, 1, 1, 1, |1, 1, 1, 1, 1, 1, 1, 1, 1, 1, |1, 0, 1, 1, 1, 1, 1, 1, 1, 1, |0, 0, 1, 1, 1, 1, 1, 0, 1, 1, |1, 1, 0, 1, 1, 0, 1, 1, 0, 0, |0, 1, 0, 1, 1, 0, 0, 1, 1, 1, |0, 0, 0, 1, 1, 0, 0, 1, 1, 0, |0, 1, 1, 1, 1, 1, 1, 1, 1, 0, |1, 1, 1, 0, 1, 1, 1, 1, 1, 0, |1, 1, 1, 1, 1, 1, 1, 1, 0, 1, |0, 0, 1, 1, 0, 0, 0, 1, 0, 0, |1, 1, 1, 1, 1, 1, 1, 0, 1, 1, |1, 1, 0, 1, 1, 0, 0, 1, 1, 1, |1, 1, 1, 1, 1, 1, 1, 1, 1, 1, |1, 0, 1, 0, 0, 0, 0, 0, 0, 1, |0, 1, 1, 0, 0, 0, 1, 1, 1, 0, |0, 0, 0, 0, 0, 0, 1, 0, 1, 0, |1, 1, 1, 1, 1, 1, 1, 1, 1, 1, |1, 0, 0, 1, 1, 1, 1, 1, 1, 1, |0, 1, 1, 1, 1, 0, 0, 0, 1, 1, |0, 1, 1, 1, 1, 1, 1, 1, 1, 1, |1, 1, 1, 1, 1, 1, 1, 1, 0, 1, |0, 0, 1, 1, 1, 0, 0, 1, 1, 1, |1, 1, 1, 1, 1, 1, 0, 0, 0, 0, |1, 0, 0, 1, 1, 1, 1, 0, 1, 1, |0, 1, 1, 1, 1, 1, 1, 1, 1, 1, |0, 1, 1, 0, 1, 1, 0, 0, 1, 1, |1, 1, 1, 1, 1, 1, 0, 1, 0, 1, |0, 1, 1, 1, 1, 1, 1, 1, 1, 1, |1, 1, 1, 0, 0, 1, 1, 1, 1, 1, |0, 0, 1, 1, 1, 1, 1, 1, 0, 1, |1, 0, 1, 1, 1, 1, 1, 1, 1, 1, |1, 1, 1, 1, 1, 1, 1, 1, 1, 1, |1, 1, 1, 1, 1, 1, 1, 1, 1, 1, |1, 0, 1, 1, 0, 1, 1, 1, 1, 1, |0, 1, 1, 1, 1, 1, 1, 1, 1, 1, |1, 1, 0, 1, 1, 1, 1, 1, 1, 0, |0, 0, 0, 0, 1, 1, 1, 1, 1, 1, |1, 0, 0, 1, 0, 1, 1, 1, 1, 1, |0, 1, 0, 1, 1, 1, 1, 1, 1, 1, |1, 1, 0, 1, 1, 0, 1, 1, 0, 0, |1, 1, 1, 1, 1, 1, 1, 0, 1, 1, |1, 1, 1, 1, 1, 1, 1, 1, 1, 1, |1, 1, 1, 1, 1, 1, 1, 1, 1, 1, |0, 0, 0, 1, 1, 1, 1, 1, 1, 1, |0, 1, 0, 1, 1, 1, 1, 1, 0, 1, |1, 1, 0, 1, 0, 1, 1, 1, 1, 1, |1, 1, 1, 1, 1, 1, 0, 1, 1, 1, |1, 1, 1, 1, 1, 1, 1, 1, 1, 1, |0, 1, 0, 0, 1, 1, 1, 1, 0, 1, |1, 1, 1, 1, 1, 1, 0, 0, 0, 0, |0, 0, 1, 0, 1, 0, 1, 1, 1, 1, |0, 1, 1, 0, 1, 1, 1, 1, 1, 1, |1, 1, 1, 0, 0, 1, 0, 1, 1, 1, |1, 1, 1, 1, 1, 0, 0, 1, 1, 1, |1, 0, 1, 1, 1, 1, 1, 1, 1, 1, |1, 0, 0, 1, 1, 1, 1, 0, 1, 0, |0, 1, 1, 1, 1, 1, 1, 1, 1, 1, |0, 0, 0, 0, 0, 0, 1, 1, 1, 1, |0, 1, 1, 1, 1, 1, 1, 1, 1, 1|];
StudentsProgramm = [1, 1, 1, 1, 1, 1, 1, 1, 1, 1];
StudentsDegree = [2, 3, 3, 1, 2, 1, 1, 3, 1, 3];
StudentsSupervisorId = [60, 38, 59, 45, 82, 44, 51, 42, 42, 25];
StudentsCourseIds = [{1, 2}, {1, 2}, {1, 2}, {2}, {1, 2}, {2}, {2}, {1, 2}, {1}, {1, 2}];
StudentsAvailability = [|1, 1, 1, 1, 1, 1, 1, 1, 1, 1, |0, 1, 1, 1, 0, 1, 1, 1, 1, 1, |1, 1, 1, 1, 1, 0, 0, 0, 1, 1, |1, 1, 1, 1, 1, 1, 1, 1, 1, 1, |0, 0, 1, 1, 1, 1, 1, 1, 1, 1, |0, 0, 0, 1, 1, 1, 1, 1, 1, 1, |1, 1, 0, 1, 1, 1, 1, 1, 1, 1, |1, 1, 1, 1, 1, 1, 1, 1, 1, 1, |0, 1, 1, 1, 1, 1, 1, 1, 0, 1, |0, 0, 0, 0, 0, 1, 1, 1, 1, 1|];
TheoryticalMinCard = [0, 0, 0, 1, 0, 0, 0, 0, 0, 0];
CoursesInstructorIds = [{1, 4, 5, 6, 7, 11, 12, 14, 15, 21, 24, 28, 35, 36, 41, 42, 43, 44, 47, 49, 52, 53, 57, 59, 60, 62, 67, 68, 69, 71, 73, 78, 82, 84, 85, 86, 87, 90, 91, 92, 93, 94}, {6, 8, 9, 13, 14, 16, 21, 23, 29, 30, 35, 37, 44, 46, 55, 56, 64, 75, 79, 81, 84, 85}];
RolesDemands = [6];
RolesContinuity = [];
ExamLen = [1, 1, 1, 1, 1, 1, 1, 1, 1, 1];
LunchTsMinLen = 1;
LunchStarts = [7..9, 20..24];
SupervisorAvailable = 5;
OptimalLunchLenght = [0, 1];
OptimalStartTs = [2, 0];
OptimalFinishTs = [1, 15];
MinimizeRooms = 500;
RolesSoftContinuity = [|1|2|];
SameDegreeInRoom = 20;
Mergeability = 0;
